benchmarks_CP/INST_36x36/20/inst36x36_20_19.dzn
S=6;
start=[|
-1,	-1,	9,	-1,	-1,	1,	-1,	-1,	-1,	-1,	11,	-1,	-1,	-1,	18,	-1,	-1,	-1,	-1,	-1,	-1,	-1,	-1,	-1,	21,	-1,	-1,	28,	-1,	-1,	-1,	-1,	33,	17,	-1,	-1|
-1,	-1,	-1,	-1,	-1,	-1,	-1,	-1,	-1,	-1,	14,	-1,	-1,	28,	-1,	-1,	-1,	-1,	-1,	-1,	-1,	-1,	-1,	-1,	-1,	-1,	-1,	-1,	-1,	-1,	-1,	-1,	20,	-1,	-1,	-1|
4,	-1,	-1,	11,	-1,	35,	-1,	-1,	-1,	24,	15,	-1,	-1,	-1,	17,	-1,	3,	-1,	-1,	25,	36,	-1,	-1,	-1,	-1,	-1,	-1,	-1,	-1,	-1,	-1,	32,	27,	-1,	21,	-1|
-1,	-1,	-1,	26,	-1,	-1,	-1,	6,	-1,	32,	-1,	-1,	-1,	-1,	-1,	-1,	-1,	33,	-1,	-1,	-1,	-1,	-1,	-1,	-1,	36,	-1,	-1,	-1,	-1,	-1,	-1,	-1,	-1,	-1,	-1|
14,	7,	-1,	-1,	-1,	13,	-1,	-1,	-1,	-1,	-1,	-1,	25,	-1,	-1,	27,	-1,	-1,	-1,	32,	29,	19,	-1,	-1,	-1,	-1,	-1,	-1,	-1,	33,	36,	4,	-1,	-1,	-1,	-1|
-1,	-1,	-1,	-1,	10,	-1,	-1,	-1,	-1,	-1,	-1,	-1,	-1,	-1,	-1,	6,	20,	-1,	-1,	-1,	-1,	-1,	-1,	13,	-1,	-1,	-1,	-1,	-1,	4,	-1,	-1,	14,	-1,	-1,	19|
-1,	-1,	15,	6,	-1,	-1,	-1,	-1,	-1,	-1,	-1,	14,	-1,	-1,	-1,	-1,	-1,	-1,	-1,	-1,	-1,	-1,	-1,	-1,	-1,	-1,	-1,	17,	-1,	-1,	-1,	-1,	-1,	-1,	-1,	-1|
-1,	-1,	-1,	-1,	-1,	-1,	18,	-1,	-1,	31,	-1,	-1,	-1,	-1,	-1,	21,	-1,	-1,	-1,	-1,	-1,	-1,	-1,	-1,	-1,	-1,	-1,	-1,	-1,	-1,	-1,	6,	-1,	25,	-1,	-1|
-1,	-1,	-1,	-1,	-1,	-1,	19,	-1,	-1,	-1,	-1,	23,	-1,	-1,	29,	-1,	-1,	-1,	-1,	30,	-1,	10,	9,	-1,	-1,	-1,	-1,	-1,	35,	-1,	-1,	-1,	-1,	-1,	-1,	-1|
23,	-1,	-1,	-1,	31,	-1,	-1,	-1,	-1,	-1,	-1,	-1,	-1,	-1,	-1,	-1,	-1,	-1,	-1,	-1,	-1,	-1,	-1,	-1,	-1,	3,	-1,	-1,	12,	24,	-1,	-1,	-1,	-1,	-1,	-1|
11,	-1,	29,	-1,	25,	-1,	-1,	-1,	-1,	-1,	30,	-1,	-1,	-1,	2,	-1,	-1,	1,	14,	-1,	-1,	-1,	-1,	-1,	-1,	-1,	-1,	-1,	8,	-1,	-1,	35,	-1,	-1,	-1,	32|
32,	-1,	-1,	10,	16,	18,	-1,	25,	-1,	-1,	-1,	-1,	-1,	-1,	-1,	26,	-1,	-1,	-1,	-1,	-1,	-1,	-1,	-1,	34,	20,	-1,	7,	-1,	-1,	-1,	2,	-1,	-1,	-1,	-1|
-1,	-1,	-1,	-1,	-1,	23,	4,	-1,	-1,	-1,	6,	-1,	-1,	-1,	28,	-1,	-1,	-1,	5,	-1,	-1,	-1,	32,	-1,	-1,	10,	-1,	-1,	-1,	-1,	-1,	-1,	-1,	-1,	18,	-1|
16,	-1,	-1,	-1,	-1,	-1,	-1,	-1,	31,	-1,	8,	-1,	-1,	-1,	34,	-1,	22,	-1,	-1,	-1,	-1,	-1,	-1,	26,	-1,	28,	-1,	6,	-1,	-1,	-1,	-1,	32,	-1,	-1,	-1|
-1,	-1,	32,	-1,	-1,	-1,	-1,	22,	-1,	-1,	-1,	36,	-1,	-1,	-1,	5,	-1,	-1,	-1,	-1,	-1,	-1,	29,	18,	25,	30,	-1,	31,	-1,	-1,	-1,	14,	-1,	-1,	-1,	-1|
-1,	-1,	-1,	-1,	-1,	-1,	-1,	21,	35,	-1,	23,	10,	-1,	-1,	-1,	4,	-1,	-1,	-1,	-1,	-1,	-1,	-1,	-1,	-1,	24,	-1,	-1,	-1,	-1,	-1,	-1,	-1,	-1,	-1,	-1|
-1,	-1,	-1,	-1,	-1,	-1,	-1,	-1,	-1,	-1,	-1,	-1,	-1,	-1,	-1,	-1,	-1,	-1,	-1,	-1,	4,	-1,	19,	-1,	-1,	-1,	-1,	-1,	-1,	-1,	-1,	-1,	36,	-1,	-1,	-1|
-1,	-1,	30,	-1,	-1,	-1,	-1,	15,	-1,	-1,	-1,	-1,	17,	-1,	-1,	-1,	-1,	-1,	13,	12,	11,	-1,	-1,	22,	4,	-1,	-1,	-1,	-1,	-1,	-1,	-1,	-1,	7,	-1,	-1|
-1,	-1,	-1,	-1,	-1,	-1,	-1,	-1,	3,	-1,	-1,	-1,	-1,	-1,	-1,	-1,	-1,	-1,	-1,	-1,	-1,	-1,	-1,	27,	-1,	9,	24,	-1,	18,	-1,	-1,	-1,	-1,	-1,	-1,	-1|
28,	-1,	-1,	-1,	-1,	-1,	-1,	-1,	-1,	19,	-1,	-1,	-1,	-1,	-1,	-1,	-1,	-1,	-1,	-1,	-1,	13,	-1,	16,	-1,	-1,	-1,	-1,	-1,	7,	32,	-1,	-1,	-1,	-1,	-1|
-1,	-1,	-1,	25,	-1,	-1,	14,	-1,	-1,	-1,	-1,	-1,	8,	-1,	-1,	-1,	-1,	-1,	36,	-1,	24,	-1,	-1,	5,	-1,	-1,	-1,	2,	-1,	-1,	16,	-1,	-1,	-1,	-1,	-1|
-1,	15,	-1,	-1,	-1,	-1,	-1,	28,	5,	-1,	-1,	-1,	6,	-1,	-1,	-1,	-1,	-1,	-1,	31,	-1,	-1,	-1,	-1,	-1,	33,	-1,	-1,	-1,	-1,	-1,	-1,	12,	2,	-1,	4|
-1,	-1,	-1,	-1,	-1,	9,	-1,	-1,	-1,	-1,	22,	20,	-1,	-1,	-1,	-1,	-1,	-1,	-1,	-1,	-1,	-1,	-1,	29,	-1,	-1,	-1,	8,	-1,	-1,	-1,	-1,	-1,	-1,	-1,	14|
-1,	-1,	-1,	-1,	-1,	-1,	-1,	18,	6,	-1,	21,	-1,	-1,	-1,	-1,	36,	2,	-1,	-1,	-1,	-1,	-1,	14,	-1,	23,	-1,	-1,	-1,	-1,	-1,	-1,	-1,	-1,	-1,	-1,	-1|
-1,	-1,	-1,	-1,	-1,	-1,	-1,	-1,	-1,	-1,	-1,	-1,	-1,	-1,	-1,	-1,	29,	-1,	-1,	-1,	33,	-1,	18,	36,	-1,	-1,	-1,	-1,	-1,	-1,	-1,	-1,	6,	-1,	34,	-1|
-1,	5,	-1,	-1,	-1,	-1,	-1,	-1,	-1,	-1,	-1,	-1,	-1,	-1,	27,	28,	7,	-1,	-1,	-1,	-1,	-1,	-1,	-1,	-1,	-1,	-1,	-1,	-1,	17,	-1,	-1,	-1,	16,	-1,	-1|
-1,	-1,	-1,	2,	-1,	-1,	-1,	-1,	-1,	-1,	26,	-1,	-1,	-1,	16,	-1,	-1,	-1,	-1,	-1,	13,	-1,	-1,	-1,	-1,	-1,	21,	32,	1,	-1,	-1,	12,	-1,	-1,	-1,	-1|
-1,	-1,	-1,	-1,	34,	32,	-1,	-1,	-1,	-1,	-1,	31,	-1,	-1,	-1,	-1,	25,	-1,	-1,	-1,	-1,	-1,	-1,	-1,	-1,	-1,	16,	-1,	23,	-1,	-1,	-1,	-1,	-1,	-1,	1|
13,	-1,	-1,	-1,	20,	33,	7,	-1,	32,	-1,	-1,	8,	-1,	-1,	-1,	-1,	-1,	36,	-1,	-1,	-1,	-1,	-1,	-1,	-1,	-1,	-1,	-1,	3,	-1,	-1,	-1,	-1,	-1,	2,	-1|
10,	-1,	-1,	-1,	24,	8,	-1,	14,	-1,	-1,	-1,	-1,	-1,	6,	-1,	-1,	-1,	21,	-1,	-1,	-1,	28,	-1,	-1,	-1,	-1,	-1,	35,	-1,	26,	-1,	-1,	-1,	-1,	-1,	20|
-1,	-1,	-1,	31,	-1,	-1,	-1,	-1,	-1,	3,	-1,	6,	-1,	-1,	-1,	17,	-1,	-1,	-1,	-1,	-1,	-1,	-1,	9,	-1,	-1,	-1,	-1,	-1,	-1,	-1,	-1,	-1,	-1,	-1,	-1|
-1,	-1,	-1,	-1,	8,	-1,	-1,	31,	-1,	-1,	-1,	-1,	-1,	24,	-1,	16,	-1,	-1,	-1,	4,	-1,	-1,	-1,	17,	-1,	1,	-1,	-1,	-1,	-1,	-1,	-1,	-1,	-1,	-1,	-1|
-1,	-1,	-1,	-1,	28,	-1,	16,	-1,	1,	-1,	33,	-1,	-1,	-1,	-1,	-1,	-1,	-1,	3,	14,	-1,	-1,	-1,	35,	-1,	-1,	-1,	-1,	10,	-1,	-1,	-1,	24,	-1,	-1,	-1|
-1,	-1,	-1,	1,	-1,	-1,	-1,	32,	-1,	-1,	-1,	-1,	-1,	-1,	-1,	-1,	13,	29,	-1,	-1,	-1,	-1,	-1,	-1,	-1,	-1,	-1,	-1,	-1,	-1,	-1,	16,	-1,	-1,	-1,	-1|
-1,	13,	-1,	-1,	-1,	-1,	-1,	-1,	-1,	-1,	-1,	-1,	-1,	-1,	22,	3,	-1,	-1,	-1,	-1,	6,	-1,	16,	-1,	-1,	-1,	-1,	-1,	-1,	-1,	-1,	-1,	-1,	-1,	-1,	36|
-1,	-1,	-1,	-1,	23,	-1,	-1,	-1,	30,	-1,	-1,	18,	-1,	-1,	36,	-1,	-1,	6,	-1,	-1,	-1,	-1,	13,	-1,	-1,	-1,	-1,	-1,	-1,	-1,	1,	-1,	-1,	-1,	5,	-1|];
